s td 14 37 50
b 1 1 2 3 4 6 8 9 10 11 12 15 16 18 19 22 23 24 25 26 27 28 29 30 32 33 35 36 37 38 39 40 41 42 43 45 50
b 2 1 2 3 6 8 9 10 11 12 15 16 18 19 22 23 24 25 26 27 28 29 30 31 32 33 35 36 37 38 39 40 41 42 43 45 50
b 3 1 2 3 6 8 9 11 12 15 16 18 19 22 23 24 25 26 27 28 29 31 32 33 37 38 39 40 41 42 43 44 45 50
b 4 3 5 6 8 16 19 22 23 24 26 27 28 29 38 39 40 43 44 45 50
b 5 1 2 3 4 6 8 9 10 11 12 15 16 18 19 22 23 24 25 26 27 28 30 32 33 35 36 37 38 39 40 41 42 43 45 47 49 50
b 6 2 3 4 6 8 9 10 11 12 15 16 18 19 22 23 24 25 26 27 28 30 32 33 35 36 37 38 39 40 41 42 43 45 46 47 49 50
b 7 2 3 4 6 8 9 10 11 12 15 16 18 19 20 22 23 24 25 26 27 28 30 33 35 36 37 38 39 40 41 42 43 45 46 47 49 50
b 8 2 3 6 8 9 10 11 14 15 18 19 20 22 23 24 25 27 28 30 33 35 36 37 38 39 40 41 42 43 45 46 47 49 50
b 9 3 6 8 9 11 14 15 18 19 20 22 23 24 25 27 28 30 33 34 35 36 37 38 40 41 42 43 45 46 47 49 50
b 10 3 6 7 8 15 18 19 20 22 23 25 27 28 30 33 34 36 37 38 40 41 42 43 45 46 47 49
b 11 2 3 4 6 8 9 10 11 12 13 15 16 19 22 24 25 26 27 30 32 36 37 38 39 40 41 42 43 45 46 49 50
b 12 2 3 4 6 8 9 10 11 12 13 15 16 19 22 25 26 27 32 36 37 38 40 42 43 45 46 48 49 50
b 13 2 3 4 8 11 16 19 21 25 26 37 40 42 43 45 46 48 49
b 14 1 2 3 4 8 9 17 19 25 26 27 29 30 32 37 38 41 42 50
1 2
1 5
1 14
2 3
3 4
5 6
6 7
6 11
7 8
8 9
9 10
11 12
12 13
